[2026-03-23T13:37:53.880Z] Pipeline "set_exp_2_exp_2_n026_c004_g003" → 2026_03_23_13_37_53_set_exp_2_exp_2_n026_c004_g003_max.sol
Set parameter WLSAccessID
Set parameter WLSSecret
Set parameter LicenseID to value 2792458
Set parameter LogFile to value "gurobi.log"
Using license file /root/gurobi.lic
Academic license 2792458 - for non-commercial use only - registered to an___@studenti.unipg.it

Gurobi Optimizer version 13.0.1 build v13.0.1rc0 (linux64 - "Ubuntu 24.04.4 LTS")
Copyright (c) 2026, Gurobi Optimization, LLC

Warning: Duplicate section found (read 'binary') - Is a variable name equal to an LP file format keyword?
Warning: Duplicate section found (read 'binary') - Is a variable name equal to an LP file format keyword?
Warning: Duplicate section found (read 'binary') - Is a variable name equal to an LP file format keyword?
Warning: Duplicate section found (read 'binary') - Is a variable name equal to an LP file format keyword?
Warning: Duplicate section found (read 'binary') - Is a variable name equal to an LP file format keyword?
Warning: Duplicate section found (read 'binary') - Is a variable name equal to an LP file format keyword?
Warning: Duplicate section found (read 'binary') - Is a variable name equal to an LP file format keyword?
Warning: Duplicate section found (read 'binary') - Is a variable name equal to an LP file format keyword?
Warning: Duplicate section found (read 'binary') - Is a variable name equal to an LP file format keyword?
Warning: Duplicate section found (read 'binary') - Is a variable name equal to an LP file format keyword?
Warning: Further warnings of this type will be omitted.
Read LP format model from file /root/bgw/data/uploads/2026_03_23_13_37_53_set_exp_2_exp_2_n026_c004_g003_max.lp
Reading time = 0.01 seconds
: 6046 rows, 522 columns, 17935 nonzeros

Using Gurobi shared library /opt/gurobi1301/linux64/lib/libgurobi.so.13.0.1

CPU model: AMD EPYC-Genoa Processor, instruction set [SSE2|AVX|AVX2|AVX512]
Thread count: 16 physical cores, 16 logical processors, using up to 16 threads

Academic license 2792458 - for non-commercial use only - registered to an___@studenti.unipg.it
Optimize a model with 6046 rows, 522 columns and 17935 nonzeros (Max)
Model fingerprint: 0x16d2204f
Model has 8 linear objective coefficients
Variable types: 34 continuous, 488 integer (488 binary)
Coefficient statistics:
  Matrix range     [1e+00, 3e+01]
  Objective range  [1e+00, 1e+00]
  Bounds range     [1e+00, 1e+00]
  RHS range        [1e+00, 3e+01]

Found heuristic solution: objective 8.0000000
Presolve removed 804 rows and 170 columns
Presolve time: 0.02s
Presolved: 5242 rows, 352 columns, 16002 nonzeros
Variable types: 0 continuous, 352 integer (340 binary)
Found heuristic solution: objective 11.0000000

Root relaxation: objective 3.500000e+01, 447 iterations, 0.03 seconds (0.04 work units)

    Nodes    |    Current Node    |     Objective Bounds      |     Work
 Expl Unexpl |  Obj  Depth IntInf | Incumbent    BestBd   Gap | It/Node Time

     0     0   35.00000    0   39   11.00000   35.00000   218%     -    0s
H    0     0                      23.0000000   35.00000  52.2%     -    0s
     0     0   35.00000    0   33   23.00000   35.00000  52.2%     -    0s
     0     0   35.00000    0   33   23.00000   35.00000  52.2%     -    0s
     0     0   35.00000    0   35   23.00000   35.00000  52.2%     -    0s
     0     0   35.00000    0   35   23.00000   35.00000  52.2%     -    0s
     0     0   35.00000    0   33   23.00000   35.00000  52.2%     -    0s
     0     0   35.00000    0   26   23.00000   35.00000  52.2%     -    0s
     0     0   35.00000    0   26   23.00000   35.00000  52.2%     -    0s
     0     0   35.00000    0   26   23.00000   35.00000  52.2%     -    0s
     0     0   35.00000    0   29   23.00000   35.00000  52.2%     -    0s
     0     0   35.00000    0   33   23.00000   35.00000  52.2%     -    0s
     0     0   35.00000    0   33   23.00000   35.00000  52.2%     -    0s
     0     0   35.00000    0   33   23.00000   35.00000  52.2%     -    0s
     0     0   35.00000    0   32   23.00000   35.00000  52.2%     -    0s
     0     0   35.00000    0   30   23.00000   35.00000  52.2%     -    0s
     0     0   35.00000    0   30   23.00000   35.00000  52.2%     -    0s
     0     0   35.00000    0   30   23.00000   35.00000  52.2%     -    0s
     0     0   35.00000    0   30   23.00000   35.00000  52.2%     -    0s
     0     0   35.00000    0   30   23.00000   35.00000  52.2%     -    0s
     0     2   35.00000    0   30   23.00000   35.00000  52.2%     -    0s

Cutting planes:
  Gomory: 2
  Cover: 7
  MIR: 4
  Inf proof: 30
  Zero half: 12

Explored 1452 nodes (131724 simplex iterations) in 1.37 seconds (2.23 work units)
Thread count was 16 (of 16 available processors)

Solution count 3: 23 11 8 

Optimal solution found (tolerance 1.00e-04)
Best objective 2.300000000000e+01, best bound 2.300000000000e+01, gap 0.0000%

Wrote result file '/root/bgw/data/results/2026_03_23_13_37_53_set_exp_2_exp_2_n026_c004_g003_max.sol'

